c Sudoku solution
p cnf 729 0
181 0
222 0
279 0
283 0
326 0
335 0
353 0
419 0
424 0
455 0
537 0
548 0
572 0
616 0
731 0
742 0
794 0
846 0
936 0
869 0
139 0
349 0
878 0
971 0
851 0
982 0
812 0
834 0
238 0
628 0
521 0
515 0
997 0
885 0
893 0
776 0
789 0
929 0
827 0
725 0
123 0
563 0
943 0
965 0
954 0
713 0
918 0
584 0
687 0
473 0
675 0
432 0
633 0
486 0
599 0
498 0
691 0
556 0
659 0
662 0
644 0
152 0
392 0
257 0
145 0
241 0
295 0
196 0
388 0
266 0
168 0
364 0
311 0
214 0
117 0
174 0
377 0
447 0
461 0
758 0
767 0
